  pair_coeff 1 1 0.066 3.5
  pair_coeff 2 2 0.066 3.5
  pair_coeff 3 3 0.03 2.5
  bond_coeff 1 268.0 1.529
  bond_coeff 2 340.0 1.09
  angle_coeff 1 58.35 112.7
  angle_coeff 2 33.0 107.8
  angle_coeff 3 37.5 110.7
  dihedral_coeff 1 1.3 -0.05 0.2 0.0
  dihedral_coeff 2 0.0 0.0 0.3 0.0
  dihedral_coeff 3 0.0 0.0 0.3 0.0
  set type 1 charge -0.18
  set type 2 charge -0.12
  set type 3 charge 0.06
